(declare-fun temp522_1 () (_ BitVec 64))
(declare-fun temp522_2 () (_ BitVec 64))
(declare-fun var71558 () (_ BitVec 64))
(declare-fun k!0 () Bool)
(declare-fun ARGNAME_input_NAMEEND_DIM () (_ BitVec 64))
(declare-fun temp522_3 () (_ BitVec 64))
(declare-fun var71602 () (_ BitVec 64))
(declare-fun temp522_4 () (_ BitVec 64))
(declare-fun temp522_5 () (_ BitVec 64))
(declare-fun var65904 () (_ BitVec 64))
(declare-fun temp522_6 () (_ BitVec 64))
(declare-fun temp522_7 () (_ BitVec 64))
(declare-fun ARGNAME_input_NAMEEND_DIMSIZE
             ()
             (Array (_ BitVec 64) (_ BitVec 64)))
(declare-fun temp522_8 () (_ BitVec 64))
(declare-fun temp522_9 () (_ BitVec 64))
(declare-fun temp522_10 () (_ BitVec 64))
(declare-fun temp522_11 () (_ BitVec 64))
(declare-fun temp522_12 () (_ BitVec 64))
(declare-fun temp522_13 () (_ BitVec 64))
(declare-fun temp522_14 () (_ BitVec 64))
(declare-fun temp522_15 () (_ BitVec 64))
(declare-fun temp522_16 () (_ BitVec 64))
(declare-fun temp522_17 () (_ BitVec 64))
(declare-fun temp522_18 () (_ BitVec 64))
(declare-fun temp522_19 () (_ BitVec 64))
(declare-fun temp522_20 () (_ BitVec 64))
(declare-fun temp522_21 () (_ BitVec 64))
(declare-fun temp522_22 () (_ BitVec 64))
(declare-fun temp522_23 () (_ BitVec 64))
(declare-fun temp522_25 () (_ BitVec 64))
(declare-fun temp522_26 () (_ BitVec 64))
(declare-fun temp522_24 () (_ BitVec 64))
(declare-fun temp522_27 () (_ BitVec 64))
(declare-fun temp522_28 () (_ BitVec 64))
(declare-fun temp522_29 () (_ BitVec 64))
(declare-fun ARGNAME_target_NAMEEND_DIMSIZE
             ()
             (Array (_ BitVec 64) (_ BitVec 64)))
(declare-fun temp522_30 () (_ BitVec 64))
(declare-fun temp522_31 () (_ BitVec 64))
(declare-fun temp522_32 () (_ BitVec 64))
(declare-fun temp522_33 () (_ BitVec 64))
(declare-fun temp522_34 () (_ BitVec 64))
(declare-fun temp522_35 () (_ BitVec 64))
(declare-fun temp522_36 () (_ BitVec 64))
(declare-fun temp522_37 () (_ BitVec 64))
(declare-fun temp522_38 () (_ BitVec 64))
(declare-fun temp522_39 () (_ BitVec 64))
(declare-fun temp522_40 () (_ BitVec 64))
(declare-fun temp522_41 () (_ BitVec 64))
(declare-fun temp522_42 () (_ BitVec 64))
(declare-fun temp522_43 () (_ BitVec 64))
(declare-fun temp522_44 () (_ BitVec 64))
(declare-fun temp522_45 () (_ BitVec 64))
(declare-fun temp522_47 () (_ BitVec 64))
(declare-fun temp522_48 () (_ BitVec 64))
(declare-fun temp522_46 () (_ BitVec 64))
(declare-fun var71627 () (_ BitVec 64))
(declare-fun temp522_49 () (_ BitVec 64))
(declare-fun temp522_50 () (_ BitVec 64))
(declare-fun var71710 () (_ BitVec 64))
(declare-fun temp522_51 () (_ BitVec 64))
(declare-fun temp522_52 () (_ BitVec 64))
(declare-fun var71713 () (_ BitVec 64))
(declare-fun temp522_53 () (_ BitVec 64))
(declare-fun temp522_54 () (_ BitVec 64))
(declare-fun var71756 () (_ BitVec 64))
(declare-fun temp522_55 () (_ BitVec 64))
(declare-fun temp522_56 () (_ BitVec 64))
(declare-fun temp522_58 () (_ BitVec 64))
(declare-fun temp522_59 () (_ BitVec 64))
(declare-fun temp522_57 () (_ BitVec 64))
(declare-fun temp522_60 () (_ BitVec 64))
(declare-fun var67396 () (_ BitVec 64))
(declare-fun temp522_62 () (_ BitVec 64))
(declare-fun temp522_63 () (_ BitVec 64))
(declare-fun temp522_61 () (_ BitVec 64))
(declare-fun temp522_64 () (_ BitVec 64))
(declare-fun var203434 () (_ BitVec 64))
(declare-fun var203436 () (_ BitVec 64))
(declare-fun var270103 () (_ BitVec 64))
(declare-fun var270104 () (_ BitVec 64))
(declare-fun var270117 () (_ BitVec 64))
(declare-fun var270119 () (_ BitVec 64))
(declare-fun temp522_65 () (_ BitVec 64))
(declare-fun var270142 () (_ BitVec 64))
(declare-fun var270144 () (_ BitVec 64))
(declare-fun var394735 () (_ BitVec 64))
(declare-fun temp522_66 () (_ BitVec 64))
(declare-fun var2563297 () (_ BitVec 64))
(declare-fun var2563309 () (_ BitVec 64))
(declare-fun var4397738 () (_ BitVec 64))
(declare-fun ARGNAME_target_NAMEEND_DIM () (_ BitVec 64))
(declare-fun var4397740 () (_ BitVec 64))
(declare-fun var4464407 () (_ BitVec 64))
(declare-fun var4464408 () (_ BitVec 64))
(declare-fun var4464421 () (_ BitVec 64))
(declare-fun var4464423 () (_ BitVec 64))
(declare-fun temp522_67 () (_ BitVec 64))
(declare-fun var4464446 () (_ BitVec 64))
(declare-fun var4464448 () (_ BitVec 64))
(declare-fun var4589039 () (_ BitVec 64))
(declare-fun temp522_68 () (_ BitVec 64))
(declare-fun var4659882 () (_ BitVec 64))
(declare-fun var4659884 () (_ BitVec 64))
(declare-fun var4726551 () (_ BitVec 64))
(declare-fun var4726552 () (_ BitVec 64))
(declare-fun var4726565 () (_ BitVec 64))
(declare-fun var4726567 () (_ BitVec 64))
(declare-fun temp522_69 () (_ BitVec 64))
(declare-fun var4726590 () (_ BitVec 64))
(declare-fun var4726592 () (_ BitVec 64))
(declare-fun var4851183 () (_ BitVec 64))
(declare-fun temp522_70 () (_ BitVec 64))
(declare-fun var4982412 () (_ BitVec 64))
(declare-fun var5048036 () (_ BitVec 64))
(declare-fun var5113623 () (_ BitVec 64))
(declare-fun var5244765 () (_ BitVec 64))
(declare-fun temp522_71 () (_ BitVec 64))
(declare-fun var5572236 () (_ BitVec 64))
(declare-fun var5637860 () (_ BitVec 64))
(declare-fun var5703447 () (_ BitVec 64))
(declare-fun var5834589 () (_ BitVec 64))
(declare-fun temp522_72 () (_ BitVec 64))
(declare-fun ARGNAME_input_NAMEEND_NUMELEMENT () (_ BitVec 64))
(declare-fun var71980 () (_ BitVec 64))
(declare-fun temp522_73 () (_ BitVec 64))
(declare-fun temp522_75 () (_ BitVec 64))
(declare-fun temp522_74 () (_ BitVec 64))
(declare-fun temp522_77 () (_ BitVec 64))
(declare-fun temp522_76 () (_ BitVec 64))
(declare-fun temp522_78 () (_ BitVec 64))
(declare-fun ARGNAME_target_NAMEEND_NUMELEMENT () (_ BitVec 64))
(declare-fun var72115 () (_ BitVec 64))
(declare-fun temp522_79 () (_ BitVec 64))
(declare-fun temp522_81 () (_ BitVec 64))
(declare-fun temp522_80 () (_ BitVec 64))
(declare-fun temp522_83 () (_ BitVec 64))
(declare-fun temp522_82 () (_ BitVec 64))
(declare-fun temp522_84 () (_ BitVec 64))
(declare-fun ARGNAME_reduction_NAMEEND () (_ BitVec 64))
(declare-fun var72212 () (_ BitVec 64))
(declare-fun temp522_85 () (_ BitVec 64))
(declare-fun var6691490 () (_ BitVec 64))
(assert (= temp522_1 #x0000000000000001))
(assert (= var71558
   (ite (bvslt ARGNAME_input_NAMEEND_DIM temp522_1)
        #x0000000000000001
        #x0000000000000000)))
(assert (= temp522_2 #x0000000000000000))
(assert (= var71558 temp522_2))
(assert (= temp522_3 #x0000000000000001))
(assert (= var71602
   (ite (= ARGNAME_input_NAMEEND_DIM temp522_3)
        #x0000000000000001
        #x0000000000000000)))
(assert (= temp522_4 #x0000000000000000))
(assert (= var71602 temp522_4))
(assert (= temp522_5 #x0000000000000000))
(assert (= var65904 temp522_5))
(assert (= temp522_6 #x0000000000000000))
(assert (= temp522_7 temp522_6))
(assert (= temp522_8 (select ARGNAME_input_NAMEEND_DIMSIZE temp522_7)))
(assert (= temp522_9 #x0000000000000001))
(assert (= temp522_10 temp522_9))
(assert (= temp522_11 (select ARGNAME_input_NAMEEND_DIMSIZE temp522_10)))
(assert (= temp522_12 #x0000000000000002))
(assert (= temp522_13 temp522_12))
(assert (= temp522_14 (select ARGNAME_input_NAMEEND_DIMSIZE temp522_13)))
(assert (= temp522_15 #x0000000000000003))
(assert (= temp522_16 temp522_15))
(assert (= temp522_17 (select ARGNAME_input_NAMEEND_DIMSIZE temp522_16)))
(assert (= temp522_18 #x0000000000000004))
(assert (= temp522_19 temp522_18))
(assert (= temp522_20 (select ARGNAME_input_NAMEEND_DIMSIZE temp522_19)))
(assert (= temp522_21 #x0000000000000005))
(assert (= temp522_22 temp522_21))
(assert (= temp522_23 (select ARGNAME_input_NAMEEND_DIMSIZE temp522_22)))
(assert (= temp522_25 var65904))
(assert (= temp522_26 (select ARGNAME_input_NAMEEND_DIMSIZE temp522_25)))
(assert (= temp522_24 temp522_26))
(assert (= temp522_27 #x0000000000000000))
(assert (= var65904 temp522_27))
(assert (= temp522_28 #x0000000000000000))
(assert (= temp522_29 temp522_28))
(assert (= temp522_30 (select ARGNAME_target_NAMEEND_DIMSIZE temp522_29)))
(assert (= temp522_31 #x0000000000000001))
(assert (= temp522_32 temp522_31))
(assert (= temp522_33 (select ARGNAME_target_NAMEEND_DIMSIZE temp522_32)))
(assert (= temp522_34 #x0000000000000002))
(assert (= temp522_35 temp522_34))
(assert (= temp522_36 (select ARGNAME_target_NAMEEND_DIMSIZE temp522_35)))
(assert (= temp522_37 #x0000000000000003))
(assert (= temp522_38 temp522_37))
(assert (= temp522_39 (select ARGNAME_target_NAMEEND_DIMSIZE temp522_38)))
(assert (= temp522_40 #x0000000000000004))
(assert (= temp522_41 temp522_40))
(assert (= temp522_42 (select ARGNAME_target_NAMEEND_DIMSIZE temp522_41)))
(assert (= temp522_43 #x0000000000000005))
(assert (= temp522_44 temp522_43))
(assert (= temp522_45 (select ARGNAME_target_NAMEEND_DIMSIZE temp522_44)))
(assert (= temp522_47 var65904))
(assert (= temp522_48 (select ARGNAME_target_NAMEEND_DIMSIZE temp522_47)))
(assert (= temp522_46 temp522_48))
(assert (= var71627
   (ite (= temp522_24 temp522_46) #x0000000000000001 #x0000000000000000)))
(assert (= temp522_49 #x0000000000000001))
(assert (= var71627 temp522_49))
(assert (= temp522_50 #x0000000000000001))
(assert (= var71710
   (ite (= ARGNAME_input_NAMEEND_DIM temp522_50)
        #x0000000000000001
        #x0000000000000000)))
(assert (= temp522_51 #x0000000000000000))
(assert (= var71710 temp522_51))
(assert (= temp522_52 #x0000000000000002))
(assert (= var71713
   (ite (= ARGNAME_input_NAMEEND_DIM temp522_52)
        #x0000000000000001
        #x0000000000000000)))
(assert (= temp522_53 #x0000000000000000))
(assert (= var71713 temp522_53))
(assert (= temp522_54 #x0000000000000004))
(assert (= var71756
   (ite (= ARGNAME_input_NAMEEND_DIM temp522_54)
        #x0000000000000001
        #x0000000000000000)))
(assert (= temp522_55 #x0000000000000000))
(assert (= var71756 temp522_55))
(assert (= temp522_56 #x0000000000000000))
(assert (= var65904 temp522_56))
(assert (= temp522_58 var65904))
(assert (= temp522_59 (select ARGNAME_input_NAMEEND_DIMSIZE temp522_58)))
(assert (= temp522_57 temp522_59))
(assert (= temp522_60 #x0000000000000001))
(assert (= var67396 temp522_60))
(assert (= temp522_62 var67396))
(assert (= temp522_63 (select ARGNAME_input_NAMEEND_DIMSIZE temp522_62)))
(assert (= temp522_61 temp522_63))
(assert (= temp522_64 #x0000000000000002))
(assert (= var203434 temp522_64))
(assert (= var203436 (bvsub ARGNAME_input_NAMEEND_DIM var203434)))
(assert (= var270103 var203434))
(assert (= var270104 var203436))
(assert (= var270117 (bvadd var270104 var270103)))
(assert (= var270119
   (ite (bvsgt var270117 ARGNAME_input_NAMEEND_DIM)
        #x0000000000000001
        #x0000000000000000)))
(assert (= temp522_65 #x0000000000000000))
(assert (= var270119 temp522_65))
(assert (= var270142 var270103))
(assert (= var270144 var270104))
(assert (= var394735 var270144))
(assert (= temp522_66 #x0000000000000001))
(assert (= var2563297 temp522_66))
(assert (= var2563309 var2563297))
(assert (= var4397738 var67396))
(assert (= var4397740 (bvsub ARGNAME_target_NAMEEND_DIM var4397738)))
(assert (= var4464407 var4397738))
(assert (= var4464408 var4397740))
(assert (= var4464421 (bvadd var4464408 var4464407)))
(assert (= var4464423
   (ite (bvsgt var4464421 ARGNAME_target_NAMEEND_DIM)
        #x0000000000000001
        #x0000000000000000)))
(assert (= temp522_67 #x0000000000000000))
(assert (= var4464423 temp522_67))
(assert (= var4464446 var4464407))
(assert (= var4464448 var4464408))
(assert (= var4589039 var4464448))
(assert (= temp522_68 #x0000000000000002))
(assert (= var4659882 temp522_68))
(assert (= var4659884 (bvsub ARGNAME_input_NAMEEND_DIM var4659882)))
(assert (= var4726551 var4659882))
(assert (= var4726552 var4659884))
(assert (= var4726565 (bvadd var4726552 var4726551)))
(assert (= var4726567
   (ite (bvsgt var4726565 ARGNAME_input_NAMEEND_DIM)
        #x0000000000000001
        #x0000000000000000)))
(assert (= temp522_69 #x0000000000000000))
(assert (= var4726567 temp522_69))
(assert (= var4726590 var4726551))
(assert (= var4726592 var4726552))
(assert (= var4851183 var4726592))
(assert (= temp522_70 #x0000000000000000))
(assert (= var4982412 temp522_70))
(assert (= var5048036 var4982412))
(assert (= var5113623 var5048036))
(assert (= var5244765 var5113623))
(assert (= temp522_71 #x0000000000000000))
(assert (= var5572236 temp522_71))
(assert (= var5637860 var5572236))
(assert (= var5703447 var5637860))
(assert (= var5834589 var5703447))
(assert (= temp522_72 #x0000000000000000))
(assert (= var71980
   (ite (bvsgt ARGNAME_input_NAMEEND_NUMELEMENT temp522_72)
        #x0000000000000001
        #x0000000000000000)))
(assert (= temp522_73 #x0000000000000001))
(assert (= var71980 temp522_73))
(assert (= temp522_75 #xffffffffffffffff))
(assert (= temp522_74 temp522_75))
(assert (= temp522_77 #x0000000000000004))
(assert (= temp522_76 temp522_77))
(assert (= temp522_78 #x0000000000000000))
(assert (= var72115
   (ite (bvsgt ARGNAME_target_NAMEEND_NUMELEMENT temp522_78)
        #x0000000000000001
        #x0000000000000000)))
(assert (= temp522_79 #x0000000000000000))
(assert (= var72115 temp522_79))
(assert (= temp522_81 #x0000000000000000))
(assert (= temp522_80 temp522_81))
(assert (= temp522_83 #x0000000000000003))
(assert (= temp522_82 temp522_83))
(assert (= temp522_84 #x0000000000000000))
(assert (= var72212
   (ite (= ARGNAME_reduction_NAMEEND temp522_84)
        #x0000000000000001
        #x0000000000000000)))
(assert (= temp522_85 #x0000000000000001))
(assert (= var72212 temp522_85))
(assert (= var6691490 var65904))
(model-add temp522_1 () (_ BitVec 64) #x0000000000000001)
(model-add temp522_2 () (_ BitVec 64) #x0000000000000000)
(model-add var71558 () (_ BitVec 64) #x0000000000000000)
(model-del k!0)
(model-add ARGNAME_input_NAMEEND_DIM
           ()
           (_ BitVec 64)
           (ite (or k!0 (= #x0000000000000001 #x8000000000000000))
                #x0000000000000001
                (bvsub #x0000000000000001 #x0000000000000001)))






